InboundTrucks  = 100;
OutboundTrucks = 50;
InboundDoors   = 20;
OutboundDoors  = 10;
ReleaseTime    = [203,43,298,107,67,210,246,170,54,289,80,167,211,37,224,34,235,268,183,77,101,116,150,121,104,87,155,230,193,105,165,137,68,207,267,17,65,290,283,229,229,207,190,270,32,224,227,165,93,237,147,5,231,256,75,228,258,201,202,185,208,13,149,98,33,70,275,296,231,19,233,298,289,285,187,188,158,218,63,206,179,271,133,190,235,144,109,91,276,192,101,83,196,286,85,251,185,11,105,56];
UnloadTime     = [4,8,8,5,4,7,8,8,4,5,6,5,10,7,1,8,10,5,3,4,8,1,2,9,10,1,3,5,2,5,10,6,10,8,3,9,6,5,6,9,4,9,1,6,3,6,7,1,6,3,6,8,6,8,10,5,7,3,6,9,2,8,4,2,6,9,9,9,6,2,2,1,7,1,9,9,6,10,7,4,9,2,2,4,10,4,7,10,1,4,6,5,1,5,7,3,8,3,9,4];
LoadTime       = [6,4,1,1,10,9,9,4,4,1,9,5,10,6,7,8,4,6,5,4,1,9,8,9,9,8,6,3,7,10,1,2,5,10,3,10,4,10,7,4,3,10,10,10,4,1,4,2,10,1];
TransferTime   = [| 0,0,0,0,0,0,0,0,0,0,5,5,5,0,0,0,0,0,2,0,0,0,0,1,0,0,0,3,0,0,0,5,0,0,0,3,4,0,0,0,0,5,0,0,0,0,0,0,5,0 | 0,0,3,3,0,0,0,1,0,0,0,0,0,0,0,2,0,1,0,0,5,4,0,0,0,4,0,0,0,0,0,0,0,0,2,0,0,0,0,0,0,0,0,0,5,2,0,0,0,0 | 5,0,0,0,0,0,0,3,1,0,0,0,0,0,2,2,0,1,0,0,0,0,3,4,0,0,5,0,5,0,0,0,1,0,0,0,0,0,0,0,4,0,0,0,0,0,0,0,0,3 | 0,3,0,0,3,0,0,0,0,3,0,0,0,4,0,1,0,0,1,5,0,0,0,0,0,0,0,0,0,1,0,0,0,1,0,0,0,0,0,2,0,0,0,4,0,0,0,0,0,3 | 0,0,2,2,0,0,0,0,0,0,0,0,0,0,0,0,0,2,0,0,0,0,0,3,1,0,0,0,0,0,2,0,0,0,3,0,0,2,0,0,0,0,2,0,0,0,1,0,0,0 | 0,0,0,0,3,0,0,0,0,2,0,0,0,3,0,3,3,0,1,5,0,0,0,0,0,0,2,0,0,4,0,0,2,5,0,0,0,0,0,1,0,0,0,1,0,0,0,0,0,0 | 0,0,0,4,0,0,0,0,0,0,0,0,0,0,1,0,0,4,0,0,0,0,0,0,5,0,0,0,0,3,3,0,0,0,1,0,0,5,0,0,0,0,1,0,0,0,1,0,0,0 | 0,0,0,0,0,0,0,0,0,0,5,4,3,0,0,0,0,0,0,0,0,0,0,0,0,0,0,3,0,0,0,2,0,0,0,2,4,0,0,1,0,2,0,0,0,0,0,0,1,0 | 0,1,0,1,0,0,0,0,0,0,3,0,0,0,0,1,0,1,0,0,0,0,0,0,1,0,1,0,1,0,5,0,3,0,4,0,0,4,0,0,0,0,5,0,0,0,3,0,0,0 | 0,0,4,0,0,0,0,2,0,0,0,0,0,0,3,1,1,0,0,0,1,3,0,2,0,4,0,0,0,0,0,0,0,0,0,0,0,2,0,0,0,0,0,0,1,1,0,0,0,0 | 2,4,0,0,0,4,3,0,0,0,0,0,0,0,2,0,2,0,0,0,0,0,0,0,0,0,3,0,0,0,0,0,1,0,0,0,0,0,1,0,0,0,0,0,0,0,0,4,0,0 | 0,0,2,0,0,0,0,2,0,0,0,0,0,0,0,4,0,0,0,0,4,2,2,0,1,1,0,0,0,1,0,0,0,0,3,1,0,0,1,2,0,2,0,0,2,4,3,0,0,0 | 0,0,0,0,3,0,0,0,0,2,3,0,0,2,0,0,0,0,2,5,0,0,0,0,0,0,0,0,0,4,0,0,0,4,0,0,0,0,0,1,0,0,2,5,0,2,0,0,0,0 | 0,2,0,0,0,2,0,0,0,1,3,5,2,0,0,0,3,0,0,0,0,0,0,0,0,0,0,5,0,0,0,2,0,0,0,4,1,0,3,0,0,4,0,1,0,0,0,0,5,0 | 0,0,0,1,0,1,2,0,0,0,0,0,0,0,0,0,0,5,3,0,0,0,0,0,2,0,0,0,0,0,3,0,0,0,4,0,3,2,3,0,0,0,1,0,0,0,1,0,0,0 | 0,0,0,1,0,0,0,0,0,0,0,0,0,0,0,0,0,2,3,0,0,0,0,0,3,0,3,0,0,0,5,0,0,0,4,0,0,4,0,0,2,0,4,0,0,0,1,0,0,0 | 1,0,0,1,0,0,0,0,3,0,3,1,3,0,0,0,0,1,0,0,3,0,0,0,5,0,0,0,0,3,5,0,0,3,3,0,0,2,2,0,0,0,5,0,0,0,3,0,0,0 | 2,0,0,0,0,0,0,0,2,0,0,0,0,0,0,2,0,0,0,3,0,3,2,4,0,2,3,0,2,0,0,0,0,0,0,0,0,0,0,0,3,0,0,0,1,0,0,0,0,2 | 0,0,0,0,5,0,0,0,0,3,0,0,0,5,2,0,0,0,2,3,0,0,0,0,0,2,1,1,2,2,0,0,0,1,0,0,0,0,0,3,0,0,0,4,0,0,0,0,0,2 | 0,0,3,0,0,0,0,2,0,0,0,3,0,0,0,5,0,0,0,3,4,1,0,0,0,3,0,0,0,0,0,0,0,0,0,3,0,0,0,0,0,0,0,3,1,2,0,0,2,0 | 1,3,0,0,0,3,5,0,0,0,0,0,0,0,3,0,2,0,0,0,0,0,1,0,0,0,0,0,0,0,0,0,1,0,0,0,3,0,1,0,0,1,2,0,0,0,0,1,0,2 | 0,0,3,0,0,2,0,3,0,0,0,0,0,0,0,3,1,0,0,0,2,5,0,0,0,2,2,0,0,0,0,0,0,0,0,0,0,0,0,0,0,0,0,0,4,5,0,0,0,0 | 0,3,0,0,0,2,2,0,0,3,0,0,0,0,2,0,2,0,0,0,0,0,0,0,0,0,0,0,0,0,0,0,5,0,0,0,0,0,1,0,0,0,0,0,0,0,0,4,0,0 | 0,1,0,0,0,1,3,0,0,0,2,0,3,3,5,0,3,0,0,0,0,0,0,0,0,0,2,0,0,0,0,0,3,0,0,0,0,0,3,0,0,0,0,0,0,0,0,3,0,0 | 0,3,0,0,0,3,2,0,0,0,0,0,0,0,4,0,3,0,0,0,0,0,0,0,0,0,0,0,0,1,0,0,1,0,0,0,0,0,2,0,0,0,0,3,0,0,0,1,0,0 | 0,0,0,2,1,0,0,0,1,5,0,0,0,4,0,0,0,0,3,4,0,0,2,0,0,0,0,0,0,2,0,0,0,3,0,0,0,0,0,4,0,0,0,3,0,0,0,3,0,3 | 2,0,0,0,0,0,0,0,4,0,0,0,0,0,0,0,0,0,0,0,0,0,4,1,0,0,5,0,2,1,0,0,2,0,3,1,0,0,0,0,5,0,0,0,0,0,0,0,0,2 | 0,0,3,0,0,0,0,1,0,0,0,0,0,0,0,2,0,0,0,0,5,3,0,0,3,4,0,3,0,0,0,0,3,0,1,0,0,0,0,0,0,0,0,0,5,5,0,0,0,0 | 0,0,0,2,5,2,0,0,0,3,0,0,0,3,0,0,0,0,2,1,0,0,2,0,1,1,0,0,0,3,0,0,0,2,0,0,0,2,0,2,0,0,0,2,0,0,0,0,0,0 | 0,0,0,0,3,0,0,0,1,4,3,0,1,1,0,3,0,0,5,1,0,0,0,0,0,0,0,0,0,1,0,0,0,1,0,0,0,0,0,5,0,0,0,3,0,0,0,0,0,0 | 0,0,4,0,0,0,0,4,0,0,3,0,0,0,0,5,0,0,0,0,5,1,0,0,0,1,0,0,0,0,0,0,0,0,0,0,0,1,0,0,0,0,0,0,4,3,0,0,0,0 | 0,0,0,5,0,0,0,0,2,0,0,0,0,0,0,0,0,3,0,0,0,0,0,0,4,0,0,0,0,0,2,0,0,0,3,0,0,1,0,0,0,0,2,0,0,0,3,0,0,0 | 0,0,2,0,0,0,0,1,0,0,2,3,4,0,0,0,0,0,0,0,0,0,0,0,1,0,0,1,2,0,1,4,0,0,0,4,2,0,0,0,0,5,0,0,0,0,1,0,3,1 | 0,0,0,0,4,0,0,0,0,2,0,0,0,5,0,0,0,0,3,3,1,0,0,0,0,0,0,0,0,4,0,0,0,4,0,0,0,0,0,4,0,0,0,1,0,0,0,2,0,0 | 0,0,4,0,2,0,0,4,0,0,0,0,0,0,0,2,0,0,0,0,5,2,0,0,0,2,0,0,0,2,0,0,0,0,0,0,0,0,0,2,2,0,0,0,1,4,0,0,0,0 | 1,0,0,0,5,0,0,0,1,4,0,0,0,2,0,0,1,2,4,5,0,0,0,0,0,0,0,0,0,1,3,0,0,3,0,0,0,2,0,2,0,0,0,1,0,0,0,0,0,3 | 4,0,0,2,0,0,0,0,5,3,0,0,0,0,0,0,2,3,0,0,1,0,1,2,0,0,3,0,3,1,0,0,0,0,0,0,2,0,2,0,4,2,0,0,0,0,0,0,0,2 | 0,0,0,5,2,0,0,0,2,0,0,0,0,1,0,0,0,2,0,0,0,0,0,2,4,0,0,0,0,0,1,0,0,1,5,0,0,1,0,0,0,0,2,1,0,0,5,0,0,0 | 0,3,0,0,5,1,0,0,0,5,0,0,0,5,0,1,0,0,4,5,0,0,0,0,0,0,3,0,0,4,0,0,0,3,0,0,0,0,0,3,0,0,0,3,0,0,0,0,0,0 | 4,0,0,0,0,0,2,0,4,0,0,0,0,0,0,0,0,0,0,0,0,0,2,5,0,0,3,0,3,0,0,0,0,0,0,0,0,0,0,0,3,0,2,0,0,0,0,0,0,2 | 4,0,0,0,0,0,0,0,1,3,0,1,0,0,2,0,0,0,0,0,0,0,5,2,0,0,1,0,4,0,0,0,0,0,0,0,1,0,0,0,3,0,0,0,0,0,0,0,0,4 | 0,0,3,0,1,0,0,0,0,2,0,0,0,5,0,0,0,0,2,3,0,0,0,0,0,0,0,0,0,1,0,0,3,4,0,0,0,0,0,4,0,0,0,5,0,0,0,0,2,0 | 0,0,4,0,0,1,2,1,0,0,0,0,1,0,0,5,0,0,0,0,1,2,0,0,0,1,0,0,0,0,0,0,0,0,0,0,0,0,0,0,1,0,0,0,5,4,2,0,0,0 | 0,4,0,0,1,3,5,3,2,0,0,0,0,0,4,0,4,0,0,0,0,0,0,0,1,0,0,0,0,0,0,0,2,0,1,0,0,0,4,0,0,0,0,0,0,0,0,1,0,0 | 0,0,3,0,0,0,0,3,0,0,0,0,0,0,0,4,0,0,0,0,5,3,0,0,1,5,0,0,0,0,0,0,0,0,0,0,0,0,1,0,0,0,0,0,3,5,0,0,0,0 | 0,0,0,0,4,0,0,0,0,1,0,0,0,3,0,0,0,0,4,5,1,0,0,0,0,0,0,0,0,3,0,1,0,2,3,0,0,0,3,4,0,0,0,5,3,0,0,0,0,0 | 0,4,1,0,0,5,3,0,0,1,0,3,0,0,3,3,4,0,0,0,0,0,0,0,0,0,0,0,0,3,2,0,2,3,0,0,3,0,1,0,0,0,0,2,0,0,0,3,0,0 | 0,0,3,0,0,0,0,3,0,0,0,0,0,0,0,2,0,0,0,0,1,2,0,0,0,5,0,3,0,0,0,0,0,0,2,0,0,0,0,0,0,0,0,0,5,1,0,0,0,1 | 0,0,0,0,0,0,0,0,0,0,5,4,4,0,0,0,0,0,3,0,0,2,0,0,0,0,0,5,0,0,0,2,0,0,0,1,4,0,0,1,2,3,0,0,0,0,0,0,1,0 | 2,0,0,0,0,0,0,2,5,0,0,0,0,0,0,0,0,0,0,0,0,0,4,1,0,0,1,0,3,0,0,0,0,0,0,0,0,2,0,0,5,0,0,0,0,2,0,0,0,5 | 0,0,0,0,3,0,0,0,0,1,0,0,1,2,0,0,0,0,4,5,0,0,0,0,0,0,0,0,0,5,0,0,0,4,0,1,0,3,1,2,0,0,0,3,0,0,2,0,0,0 | 4,0,0,0,0,0,0,3,4,0,0,0,0,0,0,0,0,0,0,0,0,0,4,3,0,0,4,0,1,0,0,0,0,0,0,0,0,0,0,2,3,0,1,0,0,0,0,0,0,5 | 0,0,0,0,0,0,0,0,3,0,2,1,4,0,0,0,0,0,0,0,2,0,0,0,0,0,0,3,0,0,0,4,0,0,0,3,4,0,0,0,0,4,0,0,0,0,0,0,3,0 | 0,2,1,2,0,5,5,0,0,2,0,0,0,0,2,0,5,0,0,0,0,0,0,0,3,3,0,0,0,0,0,0,1,0,0,0,0,0,3,0,0,0,0,0,0,0,0,1,0,0 | 0,1,0,0,0,3,1,0,0,0,0,0,0,0,2,0,2,0,0,0,0,1,0,0,0,0,0,0,0,0,0,0,1,0,0,0,0,0,4,3,0,0,0,0,1,0,0,1,0,0 | 2,2,0,1,0,5,1,0,0,0,0,0,0,2,2,0,1,0,0,0,0,0,0,0,0,0,0,0,0,0,0,0,5,0,0,0,0,0,5,0,0,0,3,0,0,0,0,1,0,0 | 0,0,0,2,0,0,0,2,0,0,2,0,0,0,0,0,0,4,0,0,0,1,3,0,5,0,0,0,0,0,3,0,0,0,1,0,0,4,2,0,0,0,3,0,0,0,1,0,0,0 | 0,0,0,2,0,3,0,1,0,0,0,0,0,0,0,0,0,2,0,0,0,0,0,0,5,0,0,0,0,0,2,0,0,0,3,0,0,1,0,0,0,0,3,0,1,0,1,0,0,0 | 0,0,0,0,1,3,0,0,0,3,0,0,1,5,0,0,0,0,2,4,0,0,0,0,0,1,0,3,0,3,0,0,0,4,0,0,1,2,0,3,0,0,0,2,0,0,0,3,0,0 | 0,1,0,0,3,1,3,0,0,0,0,0,0,0,4,0,2,0,2,0,0,0,0,0,0,0,0,0,3,0,0,2,1,0,0,0,0,0,5,0,0,0,0,0,0,0,0,5,0,0 | 2,0,0,3,0,0,2,0,0,0,0,0,0,0,0,0,0,3,1,0,0,0,0,0,3,0,0,0,2,0,4,0,0,0,3,3,0,3,0,0,0,0,3,0,0,3,2,0,0,1 | 4,0,0,0,0,0,0,0,2,0,0,0,0,0,0,0,0,0,0,2,0,0,1,1,0,0,5,2,4,0,0,0,0,0,0,0,0,0,0,0,4,0,1,0,0,0,0,0,0,5 | 0,0,0,0,0,0,0,3,0,3,5,4,3,0,0,2,0,0,0,1,0,3,0,0,0,0,0,1,0,0,0,2,0,0,0,4,3,0,0,2,0,1,0,0,0,0,2,0,4,0 | 0,0,0,2,0,0,0,0,0,0,4,1,3,2,0,0,0,0,0,2,0,0,0,0,0,0,0,1,1,0,0,3,2,0,0,1,3,0,0,0,0,5,0,0,1,0,0,0,3,0 | 3,0,0,0,0,2,0,0,1,0,0,0,0,0,0,0,0,0,0,0,0,0,3,4,0,0,1,0,5,0,2,2,0,0,0,0,0,0,0,0,5,0,0,0,0,0,0,0,0,1 | 1,5,0,0,2,2,5,3,0,0,0,0,3,0,1,0,4,2,0,0,0,0,0,0,0,0,0,2,0,0,0,0,1,0,0,0,0,0,3,0,0,2,0,1,0,0,0,4,0,0 | 1,0,0,0,0,2,0,0,1,0,0,0,3,0,0,0,0,0,0,3,0,0,5,4,1,0,3,0,5,0,0,0,0,0,0,0,3,0,0,0,3,0,0,0,1,2,0,0,3,4 | 4,0,0,0,0,0,0,0,4,0,0,0,0,0,0,0,0,0,0,0,0,0,5,5,0,0,3,0,4,2,0,0,0,0,0,0,0,0,0,0,5,0,2,0,0,0,0,0,0,1 | 2,0,0,0,0,0,0,2,3,0,0,0,0,0,0,0,0,0,0,0,0,0,4,2,0,0,2,0,2,0,0,0,0,0,0,0,0,0,0,0,1,0,0,0,0,0,0,0,0,3 | 0,0,0,4,0,0,0,0,1,0,0,0,0,0,0,0,0,2,0,0,0,0,1,0,1,0,0,0,0,1,5,0,0,0,3,0,0,4,0,0,3,0,1,0,0,0,5,0,0,0 | 0,0,1,0,0,0,0,0,1,0,5,1,3,0,0,0,0,0,0,0,0,0,0,2,0,3,0,1,0,0,0,1,0,0,0,5,5,2,0,0,0,4,0,0,0,0,0,2,3,0 | 0,0,0,5,0,0,0,0,0,0,1,0,0,2,0,3,0,2,0,0,1,0,0,0,5,0,0,0,0,0,2,0,0,0,4,0,0,2,0,0,0,0,1,0,0,2,4,0,0,0 | 0,0,1,0,0,0,0,3,0,2,0,0,0,1,0,5,0,0,0,0,1,3,1,0,0,5,0,0,0,0,0,3,0,0,0,0,0,0,0,0,0,0,0,1,4,1,0,2,0,0 | 0,2,0,0,0,0,0,0,0,0,5,4,2,0,0,0,0,0,3,3,0,0,0,0,2,0,0,3,2,0,0,2,0,0,0,3,4,0,0,0,0,1,0,0,0,0,0,0,5,2 | 0,0,0,0,0,0,2,0,0,0,5,1,2,0,0,2,0,0,0,0,0,0,0,0,0,0,0,3,0,0,0,2,0,0,0,1,5,0,0,0,0,5,0,0,0,0,0,0,1,0 | 0,0,3,0,0,0,0,0,0,0,1,3,3,0,0,0,0,0,2,0,0,0,0,0,0,0,0,5,0,0,0,3,2,0,0,5,4,0,0,2,0,4,2,0,0,2,0,0,1,0 | 0,0,0,1,0,0,0,1,0,0,4,5,1,0,0,0,0,0,0,0,0,0,0,0,0,0,0,2,0,0,0,2,0,0,0,2,4,0,0,0,3,2,0,0,1,0,0,0,4,0 | 0,0,0,1,0,0,0,0,0,0,0,0,0,0,0,2,0,2,0,0,0,0,0,0,3,0,0,0,0,0,1,0,0,0,2,0,0,4,0,0,0,0,1,0,0,0,2,2,0,0 | 0,0,4,0,0,0,0,2,0,0,0,0,0,0,0,2,2,3,0,0,5,1,0,0,0,5,0,0,0,0,0,0,0,0,0,0,2,0,0,0,0,0,0,0,2,4,0,0,0,0 | 3,0,0,0,0,0,0,0,4,3,0,0,0,0,0,0,0,0,0,0,0,0,1,2,0,0,1,0,5,0,1,0,0,0,1,0,0,0,0,0,1,0,0,0,0,0,0,0,0,5 | 0,0,0,0,4,0,0,0,0,1,0,0,0,2,0,0,0,0,3,2,0,2,0,0,0,0,0,0,0,5,2,0,0,2,0,0,0,0,0,3,0,0,0,3,0,0,0,0,0,0 | 0,0,5,0,3,0,0,5,0,0,0,0,0,0,0,3,0,1,0,0,3,4,0,0,0,3,0,0,0,0,0,0,0,0,0,0,0,0,0,0,0,0,0,0,1,5,0,0,0,0 | 0,0,1,3,0,0,0,0,0,0,1,0,0,0,0,0,0,5,0,0,1,0,0,0,1,0,0,1,0,0,2,0,0,0,5,0,0,1,0,0,0,0,4,0,2,0,5,0,0,0 | 0,0,1,5,0,0,0,2,0,0,0,0,0,0,0,0,1,3,0,0,2,0,0,0,3,0,0,0,0,0,2,0,0,0,4,0,0,3,0,0,0,0,1,0,0,0,5,0,0,0 | 0,5,0,0,0,5,5,0,1,0,0,0,1,0,2,0,5,0,0,0,0,0,0,0,0,0,0,0,0,0,0,0,1,0,0,0,0,0,4,0,1,0,0,0,0,0,0,1,0,0 | 0,1,0,0,3,0,0,0,0,2,0,0,0,5,0,0,0,0,2,3,0,0,3,3,0,0,0,0,0,3,0,0,0,1,0,0,0,0,0,2,0,0,0,5,2,0,2,1,0,0 | 0,2,0,0,0,4,2,0,0,0,0,0,3,0,5,2,4,0,0,0,0,0,0,0,0,0,0,0,0,0,0,0,2,0,0,0,1,0,5,0,0,0,0,0,0,0,0,4,0,0 | 0,0,3,0,0,0,0,1,0,0,0,0,0,0,0,2,0,0,0,0,4,4,0,0,0,2,3,0,0,0,0,0,0,0,0,0,0,0,0,0,0,0,0,0,4,3,0,0,0,0 | 0,0,3,0,0,0,0,5,0,0,0,3,0,0,0,3,0,0,0,0,2,4,2,3,3,3,0,0,0,0,0,0,3,0,2,0,0,0,0,0,0,0,0,0,2,4,0,0,0,0 | 0,0,0,0,0,0,0,2,2,1,5,1,4,0,0,0,0,0,0,3,0,0,3,0,0,0,0,1,0,0,0,3,0,0,0,2,5,0,0,0,1,3,0,0,0,0,0,0,5,0 | 0,0,0,0,0,0,3,0,0,0,4,4,4,0,0,0,0,0,3,0,0,0,1,0,0,0,0,3,1,0,0,2,1,0,0,4,5,0,0,0,0,3,0,0,0,0,0,0,5,0 | 0,4,0,0,0,2,3,0,0,0,0,0,0,0,4,2,1,3,0,2,0,0,0,0,0,0,0,0,0,0,0,0,3,0,0,0,0,0,1,0,0,0,0,0,0,3,0,5,0,0 | 3,0,0,1,5,3,0,0,0,5,0,0,0,4,1,1,0,0,3,1,0,0,0,0,0,0,0,0,0,3,0,0,0,2,0,0,0,0,0,5,0,2,0,4,0,0,0,0,0,2 | 0,0,2,0,0,0,0,0,0,0,1,4,3,1,0,0,0,0,2,0,0,0,3,0,0,0,0,4,0,0,0,4,0,0,0,2,3,0,0,0,1,1,0,0,1,0,0,0,3,0 | 0,4,0,0,0,2,4,0,0,0,0,3,0,0,3,0,1,0,0,0,0,0,0,0,0,0,0,0,0,3,0,0,3,0,0,0,0,0,5,0,0,0,0,0,0,0,0,1,0,0 | 2,0,0,0,0,0,0,0,3,0,0,0,0,0,0,0,0,0,0,0,1,1,1,2,0,0,2,0,1,0,0,2,1,0,3,0,0,0,0,0,2,0,0,0,0,0,2,0,1,1 | 5,0,0,1,0,0,0,0,2,3,0,0,0,0,0,0,0,3,0,0,0,0,5,1,0,0,2,0,3,0,0,0,0,0,0,0,3,0,3,1,3,0,0,0,0,3,3,0,0,2 | 0,0,0,0,0,0,0,0,0,3,2,2,5,0,0,0,0,0,0,0,0,0,0,0,0,0,2,3,0,0,0,5,0,0,0,4,2,0,1,0,0,1,0,2,0,0,0,0,1,0 | 0,0,4,1,0,0,0,4,0,0,0,0,0,0,0,4,0,0,0,2,3,1,0,1,0,5,0,0,0,0,0,0,2,0,0,3,0,0,1,0,0,0,0,0,1,4,0,0,2,0 | 0,0,0,2,0,0,2,3,0,0,0,0,0,0,0,0,0,4,0,0,0,0,3,0,2,0,0,0,0,0,1,3,3,0,3,0,0,3,0,1,0,0,1,0,0,0,3,0,0,0 |];
